50

99 6 300
99 10 417
95 1 306
94 25 435
92 20 319
91 13 289
90 12 371
87 26 405
86 23 361
84 6 360
83 22 253
82 6 283
82 10 420
81 13 401
81 25 272
81 25 315
80 24 395
80 1 329
78 15 408
78 18 379
78 5 283
77 1 371
77 10 352
74 20 420
72 14 439
71 10 329
69 12 344
68 10 343
66 14 302
66 5 442
64 12 418
63 19 393
62 9 368
62 8 449
61 18 227
60 11 438
57 6 183
55 5 234
52 4 428
52 12 284
46 6 179
46 1 445
45 8 257
45 2 433
42 6 394
39 9 199
39 11 307
38 12 176
35 7 252
32 4 391
